Route #1: 33 73 1 43 41 56 23 63 51
Route #2: 6 62 22 42 64 61 28
Route #3: 68 2 74 21 47 48 30
Route #4: 29 5 36 69 71 60 70 20 37 15 57
Route #5: 75 4 52 34 67 26
Route #6: 46 8 35 19 54 13 27 45
Route #7: 7 14 59 66 65 38
Route #8: 53 11 10 58 40
Route #9: 12 39 9 32 44 3 17
Route #10: 72 31 55 25 50 18 24 49 16
Cost 844
Time 0.138388
